100 8
528 360
467 310
627 349
516 724
193 526
933 174
632 356
743 776
295 449
667 366
65 427
220 552
619 672
853 172
235 492
103 403
696 394
520 616
576 294
209 418
680 394
566 308
552 208
789 422
714 787
484 330
170 363
95 412
644 438
614 332
867 231
755 770
567 637
851 113
62 522
619 709
525 808
931 680
609 257
511 434
195 121
49 213
770 641
461 773
871 659
232 355
609 750
246 570
498 331
794 351
682 554
972 68
492 750
41 380
561 394
994 167
594 845
773 787
532 692
528 664
910 676
510 832
596 824
723 708
708 131
459 378
740 729
555 798
37 384
207 467
857 670
547 211
550 688
822 743
561 668
819 739
479 579
827 513
614 270
40 481
497 316
220 358
698 777
687 759
478 338
61 458
202 396
521 680
724 237
818 333
681 412
517 622
470 295
606 708
644 839
869 512
732 771
727 560
858 304
609 753
